Geometry = GenFormat {
60 C
C
     1   1   3.4512664980E+00   6.8500000000E-01   0.0000000000E+00
     2   1   3.4512664980E+00  -6.8500000000E-01   0.0000000000E+00
     3   1  -3.4512664980E+00   6.8500000000E-01   0.0000000000E+00
     4   1  -3.4512664980E+00  -6.8500000000E-01   0.0000000000E+00
     5   1   6.8500000000E-01   0.0000000000E+00   3.4512664980E+00
     6   1  -6.8500000000E-01   0.0000000000E+00   3.4512664980E+00
     7   1   6.8500000000E-01   0.0000000000E+00  -3.4512664980E+00
     8   1  -6.8500000000E-01   0.0000000000E+00  -3.4512664980E+00
     9   1   0.0000000000E+00   3.4512664980E+00   6.8500000000E-01
    10   1   0.0000000000E+00   3.4512664980E+00  -6.8500000000E-01
    11   1   0.0000000000E+00  -3.4512664980E+00   6.8500000000E-01
    12   1   0.0000000000E+00  -3.4512664980E+00  -6.8500000000E-01
    13   1   3.0038098900E+00   1.4090000000E+00   1.1714566080E+00
    14   1   3.0038098900E+00   1.4090000000E+00  -1.1714566080E+00
    15   1   3.0038098900E+00  -1.4090000000E+00   1.1714566080E+00
    16   1   3.0038098900E+00  -1.4090000000E+00  -1.1714566080E+00
    17   1  -3.0038098900E+00   1.4090000000E+00   1.1714566080E+00
    18   1  -3.0038098900E+00   1.4090000000E+00  -1.1714566080E+00
    19   1  -3.0038098900E+00  -1.4090000000E+00   1.1714566080E+00
    20   1  -3.0038098900E+00  -1.4090000000E+00  -1.1714566080E+00
    21   1   1.4090000000E+00   1.1714566080E+00   3.0038098900E+00
    22   1   1.4090000000E+00  -1.1714566080E+00   3.0038098900E+00
    23   1  -1.4090000000E+00   1.1714566080E+00   3.0038098900E+00
    24   1  -1.4090000000E+00  -1.1714566080E+00   3.0038098900E+00
    25   1   1.4090000000E+00   1.1714566080E+00  -3.0038098900E+00
    26   1   1.4090000000E+00  -1.1714566080E+00  -3.0038098900E+00
    27   1  -1.4090000000E+00   1.1714566080E+00  -3.0038098900E+00
    28   1  -1.4090000000E+00  -1.1714566080E+00  -3.0038098900E+00
    29   1   1.1714566080E+00   3.0038098900E+00   1.4090000000E+00
    30   1  -1.1714566080E+00   3.0038098900E+00   1.4090000000E+00
    31   1   1.1714566080E+00   3.0038098900E+00  -1.4090000000E+00
    32   1  -1.1714566080E+00   3.0038098900E+00  -1.4090000000E+00
    33   1   1.1714566080E+00  -3.0038098900E+00   1.4090000000E+00
    34   1  -1.1714566080E+00  -3.0038098900E+00   1.4090000000E+00
    35   1   1.1714566080E+00  -3.0038098900E+00  -1.4090000000E+00
    36   1  -1.1714566080E+00  -3.0038098900E+00  -1.4090000000E+00
    37   1   2.5804566080E+00   7.2400000000E-01   2.2798098900E+00
    38   1   2.5804566080E+00   7.2400000000E-01  -2.2798098900E+00
    39   1   2.5804566080E+00  -7.2400000000E-01   2.2798098900E+00
    40   1   2.5804566080E+00  -7.2400000000E-01  -2.2798098900E+00
    41   1  -2.5804566080E+00   7.2400000000E-01   2.2798098900E+00
    42   1  -2.5804566080E+00   7.2400000000E-01  -2.2798098900E+00
    43   1  -2.5804566080E+00  -7.2400000000E-01   2.2798098900E+00
    44   1  -2.5804566080E+00  -7.2400000000E-01  -2.2798098900E+00
    45   1   7.2400000000E-01   2.2798098900E+00   2.5804566080E+00
    46   1   7.2400000000E-01  -2.2798098900E+00   2.5804566080E+00
    47   1  -7.2400000000E-01   2.2798098900E+00   2.5804566080E+00
    48   1  -7.2400000000E-01  -2.2798098900E+00   2.5804566080E+00
    49   1   7.2400000000E-01   2.2798098900E+00  -2.5804566080E+00
    50   1   7.2400000000E-01  -2.2798098900E+00  -2.5804566080E+00
    51   1  -7.2400000000E-01   2.2798098900E+00  -2.5804566080E+00
    52   1  -7.2400000000E-01  -2.2798098900E+00  -2.5804566080E+00
    53   1   2.2798098900E+00   2.5804566080E+00   7.2400000000E-01
    54   1  -2.2798098900E+00   2.5804566080E+00   7.2400000000E-01
    55   1   2.2798098900E+00   2.5804566080E+00  -7.2400000000E-01
    56   1  -2.2798098900E+00   2.5804566080E+00  -7.2400000000E-01
    57   1   2.2798098900E+00  -2.5804566080E+00   7.2400000000E-01
    58   1  -2.2798098900E+00  -2.5804566080E+00   7.2400000000E-01
    59   1   2.2798098900E+00  -2.5804566080E+00  -7.2400000000E-01
    60   1  -2.2798098900E+00  -2.5804566080E+00  -7.2400000000E-01
}

Driver = ConjugateGradient {
  MovedAtoms = 1:-1
  MaxForceComponent = 1E-14
  MaxSteps = 1000
  OutputPrefix = "geom.out"
}


Hamiltonian = DFTB{ 
  MaxAngularMomentum = { 
    C   = "p" 
  } 
  SlaterKosterFiles = Type2FileNames {  
  Separator = "-"       
  Suffix = ".skf" 
  } 
  SCC = Yes  
  MaxSCCIterations = 10
  SCCTolerance = 1.0E-14
 
} 

ParserOptions = {       
  ParserVersion = 4    
  WriteHSDInput = Yes  
}                      


Options = { } 

